
(set-logic NIA)
(synth-fun int_bvxnor_4 ((s Int) (t Int)) Int
  (
   (Start Int (
     StartCons
     s
     t
     (+ Start Start)
     (- Start  Start)
     (* Start Start)
     (ite StartBool Start Start)
   ))
   (StartCons Int ( 
    0
1
   ))
(StartBool Bool (
     (= Start Start)
     (>= Start Start)
     (not StartBool)
   ))
))
(constraint (= (int_bvxnor_4 0 0) -1))
(constraint (= (int_bvxnor_4 0 1) -2))
(constraint (= (int_bvxnor_4 0 2) -3))
(constraint (= (int_bvxnor_4 0 3) -4))
(constraint (= (int_bvxnor_4 0 4) -5))
(constraint (= (int_bvxnor_4 0 5) -6))
(constraint (= (int_bvxnor_4 0 6) -7))
(constraint (= (int_bvxnor_4 0 7) -8))
(constraint (= (int_bvxnor_4 0 8) -9))
(constraint (= (int_bvxnor_4 0 9) -10))
(constraint (= (int_bvxnor_4 0 10) -11))
(constraint (= (int_bvxnor_4 0 11) -12))
(constraint (= (int_bvxnor_4 0 12) -13))
(constraint (= (int_bvxnor_4 0 13) -14))
(constraint (= (int_bvxnor_4 0 14) -15))
(constraint (= (int_bvxnor_4 0 15) -16))
(constraint (= (int_bvxnor_4 1 0) -2))
(constraint (= (int_bvxnor_4 1 1) -1))
(constraint (= (int_bvxnor_4 1 2) -4))
(constraint (= (int_bvxnor_4 1 3) -3))
(constraint (= (int_bvxnor_4 1 4) -6))
(constraint (= (int_bvxnor_4 1 5) -5))
(constraint (= (int_bvxnor_4 1 6) -8))
(constraint (= (int_bvxnor_4 1 7) -7))
(constraint (= (int_bvxnor_4 1 8) -10))
(constraint (= (int_bvxnor_4 1 9) -9))
(constraint (= (int_bvxnor_4 1 10) -12))
(constraint (= (int_bvxnor_4 1 11) -11))
(constraint (= (int_bvxnor_4 1 12) -14))
(constraint (= (int_bvxnor_4 1 13) -13))
(constraint (= (int_bvxnor_4 1 14) -16))
(constraint (= (int_bvxnor_4 1 15) -15))
(constraint (= (int_bvxnor_4 2 0) -3))
(constraint (= (int_bvxnor_4 2 1) -4))
(constraint (= (int_bvxnor_4 2 2) -1))
(constraint (= (int_bvxnor_4 2 3) -2))
(constraint (= (int_bvxnor_4 2 4) -7))
(constraint (= (int_bvxnor_4 2 5) -8))
(constraint (= (int_bvxnor_4 2 6) -5))
(constraint (= (int_bvxnor_4 2 7) -6))
(constraint (= (int_bvxnor_4 2 8) -11))
(constraint (= (int_bvxnor_4 2 9) -12))
(constraint (= (int_bvxnor_4 2 10) -9))
(constraint (= (int_bvxnor_4 2 11) -10))
(constraint (= (int_bvxnor_4 2 12) -15))
(constraint (= (int_bvxnor_4 2 13) -16))
(constraint (= (int_bvxnor_4 2 14) -13))
(constraint (= (int_bvxnor_4 2 15) -14))
(constraint (= (int_bvxnor_4 3 0) -4))
(constraint (= (int_bvxnor_4 3 1) -3))
(constraint (= (int_bvxnor_4 3 2) -2))
(constraint (= (int_bvxnor_4 3 3) -1))
(constraint (= (int_bvxnor_4 3 4) -8))
(constraint (= (int_bvxnor_4 3 5) -7))
(constraint (= (int_bvxnor_4 3 6) -6))
(constraint (= (int_bvxnor_4 3 7) -5))
(constraint (= (int_bvxnor_4 3 8) -12))
(constraint (= (int_bvxnor_4 3 9) -11))
(constraint (= (int_bvxnor_4 3 10) -10))
(constraint (= (int_bvxnor_4 3 11) -9))
(constraint (= (int_bvxnor_4 3 12) -16))
(constraint (= (int_bvxnor_4 3 13) -15))
(constraint (= (int_bvxnor_4 3 14) -14))
(constraint (= (int_bvxnor_4 3 15) -13))
(constraint (= (int_bvxnor_4 4 0) -5))
(constraint (= (int_bvxnor_4 4 1) -6))
(constraint (= (int_bvxnor_4 4 2) -7))
(constraint (= (int_bvxnor_4 4 3) -8))
(constraint (= (int_bvxnor_4 4 4) -1))
(constraint (= (int_bvxnor_4 4 5) -2))
(constraint (= (int_bvxnor_4 4 6) -3))
(constraint (= (int_bvxnor_4 4 7) -4))
(constraint (= (int_bvxnor_4 4 8) -13))
(constraint (= (int_bvxnor_4 4 9) -14))
(constraint (= (int_bvxnor_4 4 10) -15))
(constraint (= (int_bvxnor_4 4 11) -16))
(constraint (= (int_bvxnor_4 4 12) -9))
(constraint (= (int_bvxnor_4 4 13) -10))
(constraint (= (int_bvxnor_4 4 14) -11))
(constraint (= (int_bvxnor_4 4 15) -12))
(constraint (= (int_bvxnor_4 5 0) -6))
(constraint (= (int_bvxnor_4 5 1) -5))
(constraint (= (int_bvxnor_4 5 2) -8))
(constraint (= (int_bvxnor_4 5 3) -7))
(constraint (= (int_bvxnor_4 5 4) -2))
(constraint (= (int_bvxnor_4 5 5) -1))
(constraint (= (int_bvxnor_4 5 6) -4))
(constraint (= (int_bvxnor_4 5 7) -3))
(constraint (= (int_bvxnor_4 5 8) -14))
(constraint (= (int_bvxnor_4 5 9) -13))
(constraint (= (int_bvxnor_4 5 10) -16))
(constraint (= (int_bvxnor_4 5 11) -15))
(constraint (= (int_bvxnor_4 5 12) -10))
(constraint (= (int_bvxnor_4 5 13) -9))
(constraint (= (int_bvxnor_4 5 14) -12))
(constraint (= (int_bvxnor_4 5 15) -11))
(constraint (= (int_bvxnor_4 6 0) -7))
(constraint (= (int_bvxnor_4 6 1) -8))
(constraint (= (int_bvxnor_4 6 2) -5))
(constraint (= (int_bvxnor_4 6 3) -6))
(constraint (= (int_bvxnor_4 6 4) -3))
(constraint (= (int_bvxnor_4 6 5) -4))
(constraint (= (int_bvxnor_4 6 6) -1))
(constraint (= (int_bvxnor_4 6 7) -2))
(constraint (= (int_bvxnor_4 6 8) -15))
(constraint (= (int_bvxnor_4 6 9) -16))
(constraint (= (int_bvxnor_4 6 10) -13))
(constraint (= (int_bvxnor_4 6 11) -14))
(constraint (= (int_bvxnor_4 6 12) -11))
(constraint (= (int_bvxnor_4 6 13) -12))
(constraint (= (int_bvxnor_4 6 14) -9))
(constraint (= (int_bvxnor_4 6 15) -10))
(constraint (= (int_bvxnor_4 7 0) -8))
(constraint (= (int_bvxnor_4 7 1) -7))
(constraint (= (int_bvxnor_4 7 2) -6))
(constraint (= (int_bvxnor_4 7 3) -5))
(constraint (= (int_bvxnor_4 7 4) -4))
(constraint (= (int_bvxnor_4 7 5) -3))
(constraint (= (int_bvxnor_4 7 6) -2))
(constraint (= (int_bvxnor_4 7 7) -1))
(constraint (= (int_bvxnor_4 7 8) -16))
(constraint (= (int_bvxnor_4 7 9) -15))
(constraint (= (int_bvxnor_4 7 10) -14))
(constraint (= (int_bvxnor_4 7 11) -13))
(constraint (= (int_bvxnor_4 7 12) -12))
(constraint (= (int_bvxnor_4 7 13) -11))
(constraint (= (int_bvxnor_4 7 14) -10))
(constraint (= (int_bvxnor_4 7 15) -9))
(constraint (= (int_bvxnor_4 8 0) -9))
(constraint (= (int_bvxnor_4 8 1) -10))
(constraint (= (int_bvxnor_4 8 2) -11))
(constraint (= (int_bvxnor_4 8 3) -12))
(constraint (= (int_bvxnor_4 8 4) -13))
(constraint (= (int_bvxnor_4 8 5) -14))
(constraint (= (int_bvxnor_4 8 6) -15))
(constraint (= (int_bvxnor_4 8 7) -16))
(constraint (= (int_bvxnor_4 8 8) -1))
(constraint (= (int_bvxnor_4 8 9) -2))
(constraint (= (int_bvxnor_4 8 10) -3))
(constraint (= (int_bvxnor_4 8 11) -4))
(constraint (= (int_bvxnor_4 8 12) -5))
(constraint (= (int_bvxnor_4 8 13) -6))
(constraint (= (int_bvxnor_4 8 14) -7))
(constraint (= (int_bvxnor_4 8 15) -8))
(constraint (= (int_bvxnor_4 9 0) -10))
(constraint (= (int_bvxnor_4 9 1) -9))
(constraint (= (int_bvxnor_4 9 2) -12))
(constraint (= (int_bvxnor_4 9 3) -11))
(constraint (= (int_bvxnor_4 9 4) -14))
(constraint (= (int_bvxnor_4 9 5) -13))
(constraint (= (int_bvxnor_4 9 6) -16))
(constraint (= (int_bvxnor_4 9 7) -15))
(constraint (= (int_bvxnor_4 9 8) -2))
(constraint (= (int_bvxnor_4 9 9) -1))
(constraint (= (int_bvxnor_4 9 10) -4))
(constraint (= (int_bvxnor_4 9 11) -3))
(constraint (= (int_bvxnor_4 9 12) -6))
(constraint (= (int_bvxnor_4 9 13) -5))
(constraint (= (int_bvxnor_4 9 14) -8))
(constraint (= (int_bvxnor_4 9 15) -7))
(constraint (= (int_bvxnor_4 10 0) -11))
(constraint (= (int_bvxnor_4 10 1) -12))
(constraint (= (int_bvxnor_4 10 2) -9))
(constraint (= (int_bvxnor_4 10 3) -10))
(constraint (= (int_bvxnor_4 10 4) -15))
(constraint (= (int_bvxnor_4 10 5) -16))
(constraint (= (int_bvxnor_4 10 6) -13))
(constraint (= (int_bvxnor_4 10 7) -14))
(constraint (= (int_bvxnor_4 10 8) -3))
(constraint (= (int_bvxnor_4 10 9) -4))
(constraint (= (int_bvxnor_4 10 10) -1))
(constraint (= (int_bvxnor_4 10 11) -2))
(constraint (= (int_bvxnor_4 10 12) -7))
(constraint (= (int_bvxnor_4 10 13) -8))
(constraint (= (int_bvxnor_4 10 14) -5))
(constraint (= (int_bvxnor_4 10 15) -6))
(constraint (= (int_bvxnor_4 11 0) -12))
(constraint (= (int_bvxnor_4 11 1) -11))
(constraint (= (int_bvxnor_4 11 2) -10))
(constraint (= (int_bvxnor_4 11 3) -9))
(constraint (= (int_bvxnor_4 11 4) -16))
(constraint (= (int_bvxnor_4 11 5) -15))
(constraint (= (int_bvxnor_4 11 6) -14))
(constraint (= (int_bvxnor_4 11 7) -13))
(constraint (= (int_bvxnor_4 11 8) -4))
(constraint (= (int_bvxnor_4 11 9) -3))
(constraint (= (int_bvxnor_4 11 10) -2))
(constraint (= (int_bvxnor_4 11 11) -1))
(constraint (= (int_bvxnor_4 11 12) -8))
(constraint (= (int_bvxnor_4 11 13) -7))
(constraint (= (int_bvxnor_4 11 14) -6))
(constraint (= (int_bvxnor_4 11 15) -5))
(constraint (= (int_bvxnor_4 12 0) -13))
(constraint (= (int_bvxnor_4 12 1) -14))
(constraint (= (int_bvxnor_4 12 2) -15))
(constraint (= (int_bvxnor_4 12 3) -16))
(constraint (= (int_bvxnor_4 12 4) -9))
(constraint (= (int_bvxnor_4 12 5) -10))
(constraint (= (int_bvxnor_4 12 6) -11))
(constraint (= (int_bvxnor_4 12 7) -12))
(constraint (= (int_bvxnor_4 12 8) -5))
(constraint (= (int_bvxnor_4 12 9) -6))
(constraint (= (int_bvxnor_4 12 10) -7))
(constraint (= (int_bvxnor_4 12 11) -8))
(constraint (= (int_bvxnor_4 12 12) -1))
(constraint (= (int_bvxnor_4 12 13) -2))
(constraint (= (int_bvxnor_4 12 14) -3))
(constraint (= (int_bvxnor_4 12 15) -4))
(constraint (= (int_bvxnor_4 13 0) -14))
(constraint (= (int_bvxnor_4 13 1) -13))
(constraint (= (int_bvxnor_4 13 2) -16))
(constraint (= (int_bvxnor_4 13 3) -15))
(constraint (= (int_bvxnor_4 13 4) -10))
(constraint (= (int_bvxnor_4 13 5) -9))
(constraint (= (int_bvxnor_4 13 6) -12))
(constraint (= (int_bvxnor_4 13 7) -11))
(constraint (= (int_bvxnor_4 13 8) -6))
(constraint (= (int_bvxnor_4 13 9) -5))
(constraint (= (int_bvxnor_4 13 10) -8))
(constraint (= (int_bvxnor_4 13 11) -7))
(constraint (= (int_bvxnor_4 13 12) -2))
(constraint (= (int_bvxnor_4 13 13) -1))
(constraint (= (int_bvxnor_4 13 14) -4))
(constraint (= (int_bvxnor_4 13 15) -3))
(constraint (= (int_bvxnor_4 14 0) -15))
(constraint (= (int_bvxnor_4 14 1) -16))
(constraint (= (int_bvxnor_4 14 2) -13))
(constraint (= (int_bvxnor_4 14 3) -14))
(constraint (= (int_bvxnor_4 14 4) -11))
(constraint (= (int_bvxnor_4 14 5) -12))
(constraint (= (int_bvxnor_4 14 6) -9))
(constraint (= (int_bvxnor_4 14 7) -10))
(constraint (= (int_bvxnor_4 14 8) -7))
(constraint (= (int_bvxnor_4 14 9) -8))
(constraint (= (int_bvxnor_4 14 10) -5))
(constraint (= (int_bvxnor_4 14 11) -6))
(constraint (= (int_bvxnor_4 14 12) -3))
(constraint (= (int_bvxnor_4 14 13) -4))
(constraint (= (int_bvxnor_4 14 14) -1))
(constraint (= (int_bvxnor_4 14 15) -2))
(constraint (= (int_bvxnor_4 15 0) -16))
(constraint (= (int_bvxnor_4 15 1) -15))
(constraint (= (int_bvxnor_4 15 2) -14))
(constraint (= (int_bvxnor_4 15 3) -13))
(constraint (= (int_bvxnor_4 15 4) -12))
(constraint (= (int_bvxnor_4 15 5) -11))
(constraint (= (int_bvxnor_4 15 6) -10))
(constraint (= (int_bvxnor_4 15 7) -9))
(constraint (= (int_bvxnor_4 15 8) -8))
(constraint (= (int_bvxnor_4 15 9) -7))
(constraint (= (int_bvxnor_4 15 10) -6))
(constraint (= (int_bvxnor_4 15 11) -5))
(constraint (= (int_bvxnor_4 15 12) -4))
(constraint (= (int_bvxnor_4 15 13) -3))
(constraint (= (int_bvxnor_4 15 14) -2))
(constraint (= (int_bvxnor_4 15 15) -1))
(check-synth)
